Gurobi Optimizer version 9.1.2 build v9.1.2rc0 (linux64)
Thread count: 36 physical cores, 72 logical processors, using up to 32 threads
Optimize a model with 12 rows, 57 columns and 590 nonzeros
Model fingerprint: 0xf32eec78
Model has 47 quadratic constraints
Coefficient statistics:
  Matrix range     [2e-05, 3e+00]
  QMatrix range    [1e+00, 1e+00]
  QLMatrix range   [1e+00, 1e+00]
  Objective range  [8e-03, 7e-01]
  Bounds range     [1e+00, 1e+00]
  RHS range        [1e+00, 1e+00]
Presolve removed 9 rows and 0 columns

Continuous model is non-convex -- solving as a MIP.

Presolve removed 9 rows and 0 columns
Presolve time: 0.00s
Presolved: 189 rows, 57 columns, 443 nonzeros
Presolved model has 47 bilinear constraint(s)
Variable types: 57 continuous, 0 integer (0 binary)

Root relaxation: objective -1.743721e+00, 44 iterations, 0.00 seconds

    Nodes    |    Current Node    |     Objective Bounds      |     Work
 Expl Unexpl |  Obj  Depth IntInf | Incumbent    BestBd   Gap | It/Node Time

     0     0   -1.74372    0   38          -   -1.74372      -     -    0s
H    0     0                       0.6147548   -1.74372   384%     -    0s
     0     0   -1.64739    0    1    0.61475   -1.64739   368%     -    0s
H    0     0                      -1.6450460   -1.64739  0.14%     -    0s
     0     0     cutoff    0        -1.64505   -1.64505  0.00%     -    0s

Cutting planes:
  RLT: 25
  BQP: 3

Explored 1 nodes (76 simplex iterations) in 0.01 seconds
Thread count was 32 (of 72 available processors)

Solution count 2: -1.64505 0.614755 
No other solutions better than -1.64505

Optimal solution found (tolerance 1.00e-04)
Best objective -1.645045978473e+00, best bound -1.645045978473e+00, gap 0.0000%

User-callback calls 78, time in user-callback 0.00 sec
Gurobi Optimizer version 9.1.2 build v9.1.2rc0 (linux64)
Thread count: 36 physical cores, 72 logical processors, using up to 32 threads
Optimize a model with 60 rows, 312 columns and 16100 nonzeros
Model fingerprint: 0x363a2cc9
Model has 262 quadratic constraints
Coefficient statistics:
  Matrix range     [4e-07, 7e+00]
  QMatrix range    [1e+00, 1e+00]
  QLMatrix range   [1e+00, 1e+00]
  Objective range  [5e-03, 1e+00]
  Bounds range     [1e+00, 1e+00]
  RHS range        [1e+00, 1e+00]
Presolve removed 15 rows and 0 columns

Continuous model is non-convex -- solving as a MIP.

Presolve removed 15 rows and 0 columns
Presolve time: 0.01s
Presolved: 1081 rows, 312 columns, 13448 nonzeros
Presolved model has 262 bilinear constraint(s)
Variable types: 312 continuous, 0 integer (0 binary)

Root relaxation: objective -2.505509e+01, 322 iterations, 0.02 seconds

    Nodes    |    Current Node    |     Objective Bounds      |     Work
 Expl Unexpl |  Obj  Depth IntInf | Incumbent    BestBd   Gap | It/Node Time

     0     0  -25.05509    0  157          -  -25.05509      -     -    0s
     0     0  -23.97780    0   73          -  -23.97780      -     -    0s
     0     0  -23.95589    0   73          -  -23.95589      -     -    0s
     0     0  -23.92430    0   74          -  -23.92430      -     -    0s
     0     0  -23.92350    0   74          -  -23.92350      -     -    0s
     0     0  -23.90749    0   71          -  -23.90749      -     -    0s
     0     0  -23.90613    0   74          -  -23.90613      -     -    0s
     0     0  -23.90305    0   74          -  -23.90305      -     -    0s
     0     0  -23.90292    0   74          -  -23.90292      -     -    0s
     0     0  -23.90135    0   74          -  -23.90135      -     -    0s
     0     0  -23.90118    0   74          -  -23.90118      -     -    0s
     0     0  -23.90094    0   74          -  -23.90094      -     -    0s
     0     0  -23.90076    0   74          -  -23.90076      -     -    0s
     0     0  -23.90042    0   74          -  -23.90042      -     -    0s
H    0     0                     -21.6483991  -23.90042  10.4%     -    0s
     0     2  -23.90042    0   74  -21.64840  -23.90042  10.4%     -    0s
* 1836  1635              85     -22.1083779  -23.10332  4.50%  50.3    2s
* 2199  1902              67     -22.3554334  -23.10332  3.35%  46.7    2s
* 2327  1792              71     -22.3554352  -23.10332  3.35%  45.9    2s
* 2328  1792              72     -22.3554373  -23.10332  3.35%  45.9    2s
* 2329  1792              72     -22.3554376  -23.10332  3.35%  46.0    2s
* 2544  1823              52     -22.3981377  -23.10332  3.15%  45.6    2s
* 2862  1892              64     -22.4495285  -23.10332  2.91%  45.4    2s
* 4183   615              64     -22.4507080  -23.10332  2.91%  47.4    3s
* 4186   582              64     -22.4507503  -23.10332  2.91%  47.4    3s
* 4543   598              66     -22.4507531  -23.10332  2.91%  46.7    3s
* 4607   609              59     -22.4508682  -23.10332  2.91%  46.6    3s
* 4609   609              60     -22.4508774  -23.10332  2.91%  46.5    3s
* 4866   690              83     -22.4614957  -23.10332  2.86%  45.9    3s
* 4872   690              85     -22.4617579  -23.10332  2.86%  45.8    3s
* 5388   826              66     -22.4621082  -23.10332  2.85%  44.7    4s
* 5522   878              68     -22.4621404  -23.10332  2.85%  44.4    4s
* 5593   904              61     -22.4624411  -23.10332  2.85%  44.3    4s
* 5594   904              61     -22.4624413  -23.10332  2.85%  44.3    4s
* 5597   904              60     -22.4625409  -23.10332  2.85%  44.3    4s
* 6338  1161              70     -22.4630641  -23.10332  2.85%  42.4    4s
* 6690  1275              67     -22.4685545  -23.10332  2.83%  41.6    4s
* 7346  1374              67     -22.4686085  -23.10332  2.82%  40.8    4s
* 7349  1374              66     -22.4687224  -23.10332  2.82%  40.8    4s
* 7404  1404              66     -22.4696036  -23.10332  2.82%  40.8    4s
* 7405  1404              66     -22.4696954  -23.10332  2.82%  40.7    4s
* 7983  1570              72     -22.5153580  -23.10332  2.61%  40.0    4s
* 7984  1570              72     -22.5153591  -23.10332  2.61%  40.0    4s
  8375  1598     cutoff   27       -22.51536  -23.08984  2.55%  39.6    5s
* 8460  1598              68     -22.5222996  -23.01863  2.20%  39.7    5s
* 8461  1598              68     -22.5223141  -23.01863  2.20%  39.7    5s
* 9723  1744              59     -22.5223741  -22.91433  1.74%  38.8    5s
* 9724  1744              59     -22.5223753  -22.91433  1.74%  38.8    5s
* 9730  1744              59     -22.5225077  -22.91433  1.74%  38.8    5s
*10060  1741              59     -22.5225087  -22.89678  1.66%  38.4    5s
*10062  1741              60     -22.5225091  -22.89678  1.66%  38.4    5s
*10063  1741              60     -22.5225098  -22.89678  1.66%  38.4    5s
*10661  1796              63     -22.5225116  -22.84777  1.44%  37.7    5s
*10664  1796              62     -22.5225400  -22.84777  1.44%  37.7    5s
*10955  1796              57     -22.5230241  -22.82101  1.32%  37.4    5s
*10956  1796              57     -22.5230264  -22.82101  1.32%  37.4    5s
*10960  1796              57     -22.5231022  -22.82101  1.32%  37.4    5s
*10961  1796              57     -22.5231057  -22.82101  1.32%  37.4    5s
*11391  1916              61     -22.5284252  -22.76356  1.04%  36.8    5s
*11392  1916              61     -22.5284288  -22.76356  1.04%  36.8    5s
*11847  2000              65     -22.5284544  -22.76356  1.04%  36.2    6s
*12917  2142              70     -22.5353187  -22.76356  1.01%  34.4    6s
*13036  2142              66     -22.5651509  -22.76356  0.88%  34.2    6s
*13176  2142              87     -22.5818996  -22.76356  0.80%  34.0    6s
*13178  2142              88     -22.5818997  -22.76356  0.80%  34.0    6s
*15714  1682              56     -22.5819183  -22.64882  0.30%  31.8    6s
*17361  1780              74     -22.5824654  -22.60827  0.11%  30.3    7s
*18144  1660              67     -22.5829123  -22.60642  0.10%  29.6    7s
*18201  1660              71     -22.5829205  -22.60642  0.10%  29.5    7s
*19222  1668              71     -22.5830529  -22.59379  0.05%  28.6    7s
*19619  1709              68     -22.5831287  -22.59222  0.04%  28.2    7s
*20662  1739              72     -22.5832018  -22.58908  0.03%  27.2    7s
*20664  1739              72     -22.5832222  -22.58908  0.03%  27.2    7s
*20665  1739              72     -22.5832228  -22.58908  0.03%  27.2    7s
*20671  1739              73     -22.5832235  -22.58908  0.03%  27.2    7s
*21055  1739              67     -22.5832876  -22.58908  0.03%  26.8    7s
*22184  1798              66     -22.5835292  -22.58692  0.02%  25.8    7s

Explored 23932 nodes (583912 simplex iterations) in 7.89 seconds
Thread count was 32 (of 72 available processors)

Solution count 10: -22.5835 -22.5833 -22.5832 ... -22.5829

Optimal solution found (tolerance 1.00e-04)
Best objective -2.258352924833e+01, best bound -2.258569416037e+01, gap 0.0096%

User-callback calls 48874, time in user-callback 0.01 sec



objective value: -22.583529248329924
objective bound: -22.585694160366796
x_opt: [1.0, 1.0, 0.0, 0.4555643332361783, 0.0, 0.0, 1.0, 0.0, 0.0, 0.0, 1.0, 8.598418475415124e-6, 1.0, 1.0, 0.28125, 1.0, 0.0, 1.0, 0.0, 0.0, 1.0, 0.6254697447217554, 0.0, 0.7924650090851336, 0.0, 0.7408410069832885, 0.0, 0.9999625905599657, 0.0, 0.0, 1.0, 0.8671673076246238, 0.0, 0.40607557781660586, 1.0, 1.0, 0.0707356527544518, 1.0, 0.0, 0.8472791878378668, 1.0, 0.0, 1.0, 0.016148279258112616, 0.0, 0.08678745818424424, 0.8730901821894131, 0.016435820952044544, 1.0, 0.15563945520541742]
GUROBI solution time: 7.8917930126190186




